# Solution for model GasLib-40
# Objective value = 6.1453742542064113e+01
loadshed[innode_1] 0
loadshed[innode_2] 0
loadshed[innode_3] 0
loadshed[innode_4] 0
loadshed[innode_5] 0
loadshed[innode_6] 0
loadshed[innode_7] 0
loadshed[innode_8] 0
loadshed[source_1] -8.7253730591336343e-02
loadshed[source_2] 7.1564193741953441e-02
loadshed[source_3] 4.0441516505297037e-01
loadshed[sink_1] 7.9068453439503839e-01
loadshed[sink_2] 0
loadshed[sink_3] 0
loadshed[sink_4] 0
loadshed[sink_5] 0
loadshed[sink_6] 0
loadshed[sink_7] 0
loadshed[sink_8] 0
loadshed[sink_9] 0
loadshed[sink_10] 0
loadshed[sink_11] 0
loadshed[sink_12] 1
loadshed[sink_13] 0
loadshed[sink_14] 0
loadshed[sink_15] 0
loadshed[sink_16] 0
loadshed[sink_17] 0
loadshed[sink_18] 0
loadshed[sink_19] 0
loadshed[sink_20] 0
loadshed[sink_21] 1
loadshed[sink_22] 0
loadshed[sink_23] 0
loadshed[sink_24] 9.6699653824072884e-01
loadshed[sink_25] 0
loadshed[sink_26] 0
loadshed[sink_27] 0
loadshed[sink_28] 0
loadshed[sink_29] 0
flow[source_1,sink_3] 1.7188424428410951e+02
flow[innode_1,sink_16] 1.6354166666666970e+01
flow[innode_6,sink_13] 2.0322994669672266e+01
flow[sink_13,sink_14] 3.9688280030055978e+00
flow[sink_14,sink_10] -1.2385338663661059e+01
flow[sink_25,sink_26] 0
flow[sink_26,sink_9] 8.5733757457935909e+01
flow[sink_9,sink_18] 6.9379590791269237e+01
flow[sink_26,sink_4] -1.0208792412460257e+02
flow[sink_4,sink_20] -1.0001136966365053e+02
flow[sink_18,sink_6] 5.3025424124602566e+01
flow[sink_25,innode_8] -1.3917591095077313e+02
flow[sink_6,sink_7] 1.6893910780854746e+01
flow[sink_6,sink_22] 1.9777346677081145e+01
flow[sink_7,sink_24] 5.3974411418808010e-01
flow[sink_22,sink_1] 3.4231800104144767e+00
flow[sink_24,sink_21] 0
flow[sink_21,sink_12] 0
flow[sink_7,sink_5] 0
flow[sink_5,sink_17] -1.6354166666667197e+01
flow[sink_17,sink_4] 1.8430721127618654e+01
flow[sink_17,sink_8] -5.1139054460952551e+01
flow[sink_3,sink_23] 16.3541666666697
flow[sink_8,sink_20] -6.7493221127619222e+01
flow[sink_25,sink_20] 1.8385875745793646e+02
flow[sink_25,sink_15] -8.1360007843501748e+01
flow[sink_15,sink_29] -5.5421309635071822e+01
flow[sink_29,sink_28] 1.6354166666667879e+01
flow[sink_29,sink_2] 5.8647031541763269e+01
flow[sink_2,sink_15] 42.2928648750966
flow[sink_29,innode_7] -1.4677667451016964e+02
flow[innode_4,sink_19] 9.4156171997007846e+01
flow[sink_19,innode_3] 2.9986285896680808e+01
flow[innode_4,innode_5] 0
flow[sink_27,innode_5] 0
flow[sink_27,sink_19] -1.6354166666679703e+01
flow[sink_10,sink_11] 3.2708333333333641e+01
flow[sink_10,innode_2] -3.1461552766980670e+01
flow[sink_10,innode_3] -2.9986285896680808e+01
flow[innode_6,sink_25] -2.0322994669672266e+01
flow[sink_11,innode_1] 1.6354166666666970e+01
flow[sink_19,innode_2] 3.1461552766980670e+01
flow[source_3,innode_4] 9.4156171997007846e+01
flow[source_2,innode_7] 1.4677667451016964e+02
flow[sink_3,innode_8] 1.3917591095077313e+02
pressure[innode_1] 7.5384169249300484e+01
pressure[innode_2] 7.7198743561107591e+01
pressure[innode_3] 7.7132342326567908e+01
pressure[innode_4] 81.01325
pressure[innode_5] 7.6847613563964089e+01
pressure[innode_6] 7.5069201258043350e+01
pressure[innode_7] 81.01325
pressure[innode_8] 8.0438706633519530e+01
pressure[source_1] 81.01325
pressure[source_2] 81.01325
pressure[source_3] 81.01325
pressure[sink_1] 1.01325
pressure[sink_2] 7.5601953457672337e+01
pressure[sink_3] 8.0438706633519530e+01
pressure[sink_4] 2.3900536548098785e+01
pressure[sink_5] 2.3386630730817291e+01
pressure[sink_6] 1.8631299198254834e+00
pressure[sink_7] 1.6312167937928852e+00
pressure[sink_8] 2.6534507316980292e+01
pressure[sink_9] 5.7894270029597372e+00
pressure[sink_10] 7.5535870556904030e+01
pressure[sink_11] 7.5384169249300484e+01
pressure[sink_12] 1.0132500000000004e+00
pressure[sink_13] 7.4957163984717354e+01
pressure[sink_14] 7.4950061428936593e+01
pressure[sink_15] 7.5463876575052424e+01
pressure[sink_16] 74.3625194144828
pressure[sink_17] 2.4604897936172041e+01
pressure[sink_18] 3.2790666213877211e+00
pressure[sink_19] 7.7198743561107591e+01
pressure[sink_20] 3.1237835654113162e+01
pressure[sink_21] 1.0132500000000004e+00
pressure[sink_22] 1.2359133333282255e+00
pressure[sink_23] 8.0273988621859743e+01
pressure[sink_24] 1.0132500000000004e+00
pressure[sink_25] 7.5069201258043350e+01
pressure[sink_26] 1.0920813659554149e+01
pressure[sink_27] 7.6847613563964089e+01
pressure[sink_28] 7.6792266680197557e+01
pressure[sink_29] 7.7087548953814746e+01
interdiction[source_1,sink_3] 0
interdiction[innode_1,sink_16] 0
interdiction[innode_6,sink_13] 0
interdiction[sink_13,sink_14] 0
interdiction[sink_14,sink_10] 0
interdiction[sink_25,sink_26] 1
interdiction[sink_26,sink_9] 0
interdiction[sink_9,sink_18] 0
interdiction[sink_26,sink_4] 0
interdiction[sink_4,sink_20] 0
interdiction[sink_18,sink_6] 0
interdiction[sink_25,innode_8] 0
interdiction[sink_6,sink_7] 0
interdiction[sink_6,sink_22] 0
interdiction[sink_7,sink_24] 0
interdiction[sink_22,sink_1] 0
interdiction[sink_24,sink_21] 0
interdiction[sink_21,sink_12] 0
interdiction[sink_7,sink_5] 1
interdiction[sink_5,sink_17] 0
interdiction[sink_17,sink_4] 0
interdiction[sink_17,sink_8] 0
interdiction[sink_3,sink_23] 0
interdiction[sink_8,sink_20] 0
interdiction[sink_25,sink_20] 0
interdiction[sink_25,sink_15] 0
interdiction[sink_15,sink_29] 0
interdiction[sink_29,sink_28] 0
interdiction[sink_29,sink_2] 0
interdiction[sink_2,sink_15] 0
interdiction[sink_29,innode_7] 0
interdiction[innode_4,sink_19] 0
interdiction[sink_19,innode_3] 0
interdiction[innode_4,innode_5] 1
interdiction[sink_27,innode_5] 0
interdiction[sink_27,sink_19] 0
interdiction[sink_10,sink_11] 0
interdiction[sink_10,innode_2] 0
interdiction[sink_10,innode_3] 0
interdiction[innode_6,sink_25] 0
interdiction[sink_11,innode_1] 0
interdiction[sink_19,innode_2] 0
interdiction[source_3,innode_4] 0
interdiction[source_2,innode_7] 0
interdiction[sink_3,innode_8] 0
WCcheckFlow[source_1,sink_3] 39
WCcheckFlow[innode_1,sink_16] 1
WCcheckFlow[innode_6,sink_13] 13
WCcheckFlow[sink_13,sink_14] 12
WCcheckFlow[sink_14,sink_10] 11
WCcheckFlow[sink_25,sink_26] 0
WCcheckFlow[sink_26,sink_9] 9
WCcheckFlow[sink_9,sink_18] 8
WCcheckFlow[sink_26,sink_4] -10
WCcheckFlow[sink_4,sink_20] -14
WCcheckFlow[sink_18,sink_6] 7
WCcheckFlow[sink_25,innode_8] -36
WCcheckFlow[sink_6,sink_7] 4
WCcheckFlow[sink_6,sink_22] 2
WCcheckFlow[sink_7,sink_24] 3
WCcheckFlow[sink_22,sink_1] 1
WCcheckFlow[sink_24,sink_21] 2
WCcheckFlow[sink_21,sink_12] 1
WCcheckFlow[sink_7,sink_5] 0
WCcheckFlow[sink_5,sink_17] -1
WCcheckFlow[sink_17,sink_4] -3
WCcheckFlow[sink_17,sink_8] 1
WCcheckFlow[sink_3,sink_23] 1
WCcheckFlow[sink_8,sink_20] 0
WCcheckFlow[sink_25,sink_20] 15
WCcheckFlow[sink_25,sink_15] 6
WCcheckFlow[sink_15,sink_29] 5
WCcheckFlow[sink_29,sink_28] 1
WCcheckFlow[sink_29,sink_2] 1
WCcheckFlow[sink_2,sink_15] 0
WCcheckFlow[sink_29,innode_7] 2
WCcheckFlow[innode_4,sink_19] -2
WCcheckFlow[sink_19,innode_3] -5
WCcheckFlow[innode_4,innode_5] 0
WCcheckFlow[sink_27,innode_5] 1
WCcheckFlow[sink_27,sink_19] -2
WCcheckFlow[sink_10,sink_11] 3
WCcheckFlow[sink_10,innode_2] 1
WCcheckFlow[sink_10,innode_3] 6
WCcheckFlow[innode_6,sink_25] -14
WCcheckFlow[sink_11,innode_1] 2
WCcheckFlow[sink_19,innode_2] 0
WCcheckFlow[source_3,innode_4] -1
WCcheckFlow[source_2,innode_7] -1
WCcheckFlow[sink_3,innode_8] 37
